(declare-const batch_at Int)
(declare-const phi_tmp Int)
(declare-const param0 Int)
(declare-const param0@pos Int)
(declare-const |param0'| Int)
(declare-const param2@pos Int)
(declare-const |param1'| Int)
(declare-const |i'| Int)
(declare-const |__tmpTR__int_1'| Int)
(declare-const |param1@pos'| Int)
(declare-const term_to_project_onto6 Real)
(declare-const |param2@pos'| Int)
(declare-const term_to_project_onto8 Real)
(declare-const tr0 Int)
(declare-const |param0@pos'| Int)
(declare-const i Int)
(declare-const param2@width Int)
(declare-const |param2'| Int)
(declare-const phi_tmp0 Int)
(declare-const |tmp'| Int)
(declare-const |param2@width'| Int)
(declare-const term_to_project_onto10 Real)
(declare-const af Int)
(declare-const term_to_project_onto3 Real)
(declare-const param1 Int)
(declare-const |param0@width'| Int)
(declare-const term_to_project_onto9 Real)
(declare-const __tmpTR__int_1 Int)
(declare-const param1@width Int)
(declare-const term_to_project_onto4 Real)
(declare-const param2 Int)
(declare-const param1@pos Int)
(declare-const type_err0 Int)
(declare-const term_to_project_onto2 Real)
(declare-const term_to_project_onto1 Real)
(declare-const tr Int)
(declare-const term_to_project_onto Real)
(declare-const term_to_project_onto7 Real)
(declare-const param0@width Int)
(declare-const term_to_project_onto5 Real)
(declare-const |param1@width'| Int)
(declare-const havoc Int)
(declare-const type_err Int)
(declare-const term_to_project_onto0 Real)
(declare-const tmp Int)
(assert (and (<= (+ (- batch_at) i 1) 0)
               (or (and (<= (- i) 0)
                          (or (and (<= (+ (- i) 256) 0) (= (- phi_tmp) 0))
                                (and (<= (+ i -255) 0)
                                       (= (+ (- phi_tmp) 1) 0)))
                          (= (+ (- phi_tmp0) phi_tmp) 0))
                     (and (<= (+ i 1) 0) (= (- phi_tmp0) 0)))
               (or (<= (+ phi_tmp0 1) 0) (<= (+ (- phi_tmp0) 1) 0))
               (= (+ (- type_err0) |param2@width'|) 0)
               (= (+ |param1@width'| -1) 0) (= (+ |param0@width'| -1) 0)
               (= (+ (- type_err) |param2@pos'|) 0) (= |param1@pos'| 0)
               (= (+ |param0@pos'| (* -1016 i)) 0) (= (+ (- af) |param2'|) 0)
               (= (+ (- tr0) |param1'|) 0)
               (= (+ (- tr) |param0'| (* -1016 i)) 0)
               (= (+ |tmp'| (- phi_tmp0)) 0) (= (+ |i'| (- i) -1) 0)
               (= (+ (- havoc) |__tmpTR__int_1'|) 0)
               (= term_to_project_onto10 (+ |__tmpTR__int_1'|
                                              (- __tmpTR__int_1)))
               (= term_to_project_onto9 (+ |i'| (- i)))
               (= term_to_project_onto8 (+ |tmp'| (- tmp)))
               (= term_to_project_onto7 (+ |param0'| (- param0)))
               (= term_to_project_onto6 (+ |param1'| (- param1)))
               (= term_to_project_onto5 (+ |param2'| (- param2)))
               (= term_to_project_onto4 (+ |param0@pos'| (- param0@pos)))
               (= term_to_project_onto3 (+ |param1@pos'| (- param1@pos)))
               (= term_to_project_onto2 (+ |param2@pos'| (- param2@pos)))
               (= term_to_project_onto1 (+ |param0@width'| (- param0@width)))
               (= term_to_project_onto0 (+ |param1@width'| (- param1@width)))
               (= term_to_project_onto (+ |param2@width'| (- param2@width)))))
(check-sat)
